
Gurobi 11.0.1 (win64) logging started Thu Mar 14 08:01:56 2024

Set parameter LogFile to value "C:\Projetos\Job_Rotation_Algorithms\Outputs\GurobiLogs\gurobi_log-output-3_ros-c19-CostaMirallesModel-NoExtraConstraint-2.log"
Gurobi Optimizer version 11.0.1 build v11.0.1rc0 (win64 - Windows 10.0 (19045.2))

CPU model: 11th Gen Intel(R) Core(TM) i7-1165G7 @ 2.80GHz, instruction set [SSE2|AVX|AVX2|AVX512]
Thread count: 4 physical cores, 8 logical processors, using up to 1 threads


Gurobi 11.0.1 (win64) logging started Fri Mar 15 00:39:23 2024

Set parameter LogFile to value "C:\Projetos\Job_Rotation_Algorithms\Outputs\GurobiLogs\gurobi_log-output-3_ros-c19-CostaMirallesModel-NoExtraConstraint-2.log"
Gurobi Optimizer version 11.0.1 build v11.0.1rc0 (win64 - Windows 10.0 (19045.2))

CPU model: 11th Gen Intel(R) Core(TM) i7-1165G7 @ 2.80GHz, instruction set [SSE2|AVX|AVX2|AVX512]
Thread count: 4 physical cores, 8 logical processors, using up to 1 threads


Gurobi 11.0.1 (win64) logging started Sat Mar 16 12:25:48 2024

Set parameter LogFile to value "C:\Projetos\Job_Rotation_Algorithms\Outputs\GurobiLogs\gurobi_log-output-3_ros-c19-CostaMirallesModel-NoExtraConstraint-2.log"
Gurobi Optimizer version 11.0.1 build v11.0.1rc0 (win64 - Windows 10.0 (19045.2))

CPU model: 11th Gen Intel(R) Core(TM) i7-1165G7 @ 2.80GHz, instruction set [SSE2|AVX|AVX2|AVX512]
Thread count: 4 physical cores, 8 logical processors, using up to 1 threads


Gurobi 11.0.1 (win64) logging started Sat Mar 16 22:28:30 2024

Set parameter LogFile to value "C:\Projetos\Job_Rotation_Algorithms\Outputs\GurobiLogs\gurobi_log-output-3_ros-c19-CostaMirallesModel-NoExtraConstraint-2.log"
Gurobi Optimizer version 11.0.1 build v11.0.1rc0 (win64 - Windows 10.0 (19045.2))

CPU model: 11th Gen Intel(R) Core(TM) i7-1165G7 @ 2.80GHz, instruction set [SSE2|AVX|AVX2|AVX512]
Thread count: 4 physical cores, 8 logical processors, using up to 1 threads

WLS license 901039 - registered to Bitka Analytics
Optimize a model with 421 rows, 844 columns and 6556 nonzeros
Model fingerprint: 0x04fc92c7
Variable types: 2 continuous, 842 integer (842 binary)
Coefficient statistics:
  Matrix range     [1e+00, 3e+01]
  Objective range  [1e+00, 1e+00]
  Bounds range     [1e+00, 4e+01]
  RHS range        [1e+00, 4e+01]
Presolve removed 49 rows and 151 columns
Presolve time: 0.03s
Presolved: 372 rows, 693 columns, 4872 nonzeros
Variable types: 0 continuous, 693 integer (692 binary)

Root relaxation: objective 5.000000e+01, 444 iterations, 0.00 seconds (0.01 work units)

    Nodes    |    Current Node    |     Objective Bounds      |     Work
 Expl Unexpl |  Obj  Depth IntInf | Incumbent    BestBd   Gap | It/Node Time

     0     0   50.00000    0   26          -   50.00000      -     -    0s
     0     0   50.00000    0  154          -   50.00000      -     -    0s
     0     0   50.00000    0  128          -   50.00000      -     -    0s
     0     0   50.00000    0   36          -   50.00000      -     -    0s
     0     0   50.00000    0   46          -   50.00000      -     -    0s
     0     0   50.00000    0   33          -   50.00000      -     -    0s
     0     0   50.00000    0   66          -   50.00000      -     -    0s
     0     0   50.00000    0   16          -   50.00000      -     -    0s
     0     0   50.00000    0  111          -   50.00000      -     -    0s
     0     0   50.00000    0   65          -   50.00000      -     -    0s
     0     0   50.00000    0   65          -   50.00000      -     -    0s
     0     2   50.00000    0   29          -   50.00000      -     -    0s
  1439   216   50.00000   10  119          -   50.00000      -   108    5s
H 1645   250                      35.0000000   50.00000  42.9%   8.4    6s

Cutting planes:
  Cover: 23
  Clique: 30
  Flow cover: 7
  GUB cover: 6
  RLT: 2

Explored 1983 nodes (255463 simplex iterations) in 9.93 seconds (9.95 work units)
Thread count was 1 (of 8 available processors)

Solution count 1: 35 

Optimal solution found (tolerance 1.00e-03)
Best objective 3.500000000000e+01, best bound 3.500000000000e+01, gap 0.0000%
